(declare-fun temp2103_1 () (_ BitVec 64))
(declare-fun temp2103_2 () (_ BitVec 64))
(declare-fun temp2103_3 () (_ BitVec 64))
(declare-fun ARGNAME_y_NAMEEND_DIMSIZE () (Array (_ BitVec 64) (_ BitVec 64)))
(declare-fun temp2103_4 () (_ BitVec 64))
(declare-fun temp2103_5 () (_ BitVec 64))
(declare-fun temp2103_6 () (_ BitVec 64))
(declare-fun temp2103_7 () (_ BitVec 64))
(declare-fun temp2103_8 () (_ BitVec 64))
(declare-fun temp2103_9 () (_ BitVec 64))
(declare-fun temp2103_10 () (_ BitVec 64))
(declare-fun temp2103_11 () (_ BitVec 64))
(declare-fun temp2103_12 () (_ BitVec 64))
(declare-fun temp2103_13 () (_ BitVec 64))
(declare-fun temp2103_14 () (_ BitVec 64))
(declare-fun temp2103_15 () (_ BitVec 64))
(declare-fun temp2103_16 () (_ BitVec 64))
(declare-fun temp2103_17 () (_ BitVec 64))
(declare-fun temp2103_18 () (_ BitVec 64))
(declare-fun temp2103_19 () (_ BitVec 64))
(declare-fun temp2103_20 () (_ BitVec 64))
(declare-fun var131764 () (_ BitVec 64))
(declare-fun ARGNAME_y_NAMEEND_DIM () (_ BitVec 64))
(declare-fun temp2103_21 () (_ BitVec 64))
(declare-fun var131768 () (_ BitVec 64))
(declare-fun temp2103_22 () (_ BitVec 64))
(declare-fun temp2103_23 () (_ BitVec 64))
(declare-fun var131771 () (_ BitVec 64))
(declare-fun k!0 () (_ BitVec 64))
(declare-fun k!1 () Bool)
(declare-fun temp2103_24 () (_ BitVec 64))
(declare-fun ARGNAME_x_NAMEEND_DIM () (_ BitVec 64))
(declare-fun var131812 () (_ BitVec 64))
(declare-fun temp2103_25 () (_ BitVec 64))
(declare-fun var131917 () (_ BitVec 64))
(declare-fun temp2103_26 () (_ BitVec 64))
(declare-fun temp2103_28 () (_ BitVec 64))
(declare-fun temp2103_27 () (_ BitVec 64))
(declare-fun temp2103_30 () (_ BitVec 64))
(declare-fun temp2103_29 () (_ BitVec 64))
(declare-fun temp2103_31 () (_ BitVec 64))
(declare-fun var1246502 () (_ BitVec 64))
(declare-fun temp2103_33 () (_ BitVec 64))
(declare-fun temp2103_32 () (_ BitVec 64))
(declare-fun temp2103_34 () (_ BitVec 64))
(declare-fun var1705254 () (_ BitVec 64))
(assert (= temp2103_1 #x0000000000000000))
(assert (= temp2103_2 temp2103_1))
(assert (= temp2103_3 (select ARGNAME_y_NAMEEND_DIMSIZE temp2103_2)))
(assert (= temp2103_4 #x0000000000000001))
(assert (= temp2103_5 temp2103_4))
(assert (= temp2103_6 (select ARGNAME_y_NAMEEND_DIMSIZE temp2103_5)))
(assert (= temp2103_7 #x0000000000000002))
(assert (= temp2103_8 temp2103_7))
(assert (= temp2103_9 (select ARGNAME_y_NAMEEND_DIMSIZE temp2103_8)))
(assert (= temp2103_10 #x0000000000000003))
(assert (= temp2103_11 temp2103_10))
(assert (= temp2103_12 (select ARGNAME_y_NAMEEND_DIMSIZE temp2103_11)))
(assert (= temp2103_13 #x0000000000000004))
(assert (= temp2103_14 temp2103_13))
(assert (= temp2103_15 (select ARGNAME_y_NAMEEND_DIMSIZE temp2103_14)))
(assert (= temp2103_16 #x0000000000000005))
(assert (= temp2103_17 temp2103_16))
(assert (= temp2103_18 (select ARGNAME_y_NAMEEND_DIMSIZE temp2103_17)))
(assert (= temp2103_19 #x0000000000000000))
(assert (= temp2103_20
   (ite (bvslt var131764 temp2103_19)
        (bvadd ARGNAME_y_NAMEEND_DIM var131764)
        var131764)))
(assert (= temp2103_21 (select ARGNAME_y_NAMEEND_DIMSIZE temp2103_20)))
(assert (= var131768 temp2103_21))
(assert (bvslt (ite (bvslt var131764 temp2103_19)
            (bvadd ARGNAME_y_NAMEEND_DIM var131764)
            var131764)
       ARGNAME_y_NAMEEND_DIM))
(assert (= temp2103_22 #x0000000000000000))
(assert (= var131771
   (ite (= var131768 temp2103_22) #x0000000000000001 #x0000000000000000)))
(assert (= temp2103_23 #x0000000000000000))
(assert (= var131771 temp2103_23))
(assert (= temp2103_24 #x0000000000000001))
(assert (= var131812
   (ite (= ARGNAME_x_NAMEEND_DIM temp2103_24)
        #x0000000000000001
        #x0000000000000000)))
(assert (= temp2103_25 #x0000000000000000))
(assert (= var131812 temp2103_25))
(assert (= var131917
   (ite (bvslt ARGNAME_x_NAMEEND_DIM ARGNAME_y_NAMEEND_DIM)
        #x0000000000000001
        #x0000000000000000)))
(assert (= temp2103_26 #x0000000000000001))
(assert (= var131917 temp2103_26))
(assert (= temp2103_28 #x0000000000000000))
(assert (= temp2103_27 temp2103_28))
(assert (= temp2103_30 #xffffffffffffffff))
(assert (= temp2103_29 temp2103_30))
(assert (= temp2103_31 #x0000000000000001))
(assert (= var1246502 temp2103_31))
(assert (= temp2103_33 #x0000000000000001))
(assert (= temp2103_32 temp2103_33))
(assert (= temp2103_34 #x0000000000000001))
(assert (= var1705254 temp2103_34))
(model-add temp2103_1 () (_ BitVec 64) #x0000000000000000)
(model-add temp2103_2 () (_ BitVec 64) #x0000000000000000)
(model-add temp2103_3
           ()
           (_ BitVec 64)
           (select ARGNAME_y_NAMEEND_DIMSIZE #x0000000000000000))
(model-add temp2103_4 () (_ BitVec 64) #x0000000000000001)
(model-add temp2103_5 () (_ BitVec 64) #x0000000000000001)
(model-add temp2103_6
           ()
           (_ BitVec 64)
           (select ARGNAME_y_NAMEEND_DIMSIZE #x0000000000000001))
(model-add temp2103_7 () (_ BitVec 64) #x0000000000000002)
(model-add temp2103_8 () (_ BitVec 64) #x0000000000000002)
(model-add temp2103_9
           ()
           (_ BitVec 64)
           (select ARGNAME_y_NAMEEND_DIMSIZE #x0000000000000002))
(model-add temp2103_10 () (_ BitVec 64) #x0000000000000003)
(model-add temp2103_11 () (_ BitVec 64) #x0000000000000003)
(model-add temp2103_12
           ()
           (_ BitVec 64)
           (select ARGNAME_y_NAMEEND_DIMSIZE #x0000000000000003))
(model-add temp2103_13 () (_ BitVec 64) #x0000000000000004)
(model-add temp2103_14 () (_ BitVec 64) #x0000000000000004)
(model-add temp2103_15
           ()
           (_ BitVec 64)
           (select ARGNAME_y_NAMEEND_DIMSIZE #x0000000000000004))
(model-add temp2103_16 () (_ BitVec 64) #x0000000000000005)
(model-add temp2103_17 () (_ BitVec 64) #x0000000000000005)
(model-add temp2103_18
           ()
           (_ BitVec 64)
           (select ARGNAME_y_NAMEEND_DIMSIZE #x0000000000000005))
(model-add temp2103_19 () (_ BitVec 64) #x0000000000000000)
(model-add temp2103_20
           ()
           (_ BitVec 64)
           (ite (bvsle #x0000000000000000 var131764)
                var131764
                (bvadd ARGNAME_y_NAMEEND_DIM var131764)))
(model-add temp2103_21
           ()
           (_ BitVec 64)
           (select ARGNAME_y_NAMEEND_DIMSIZE
                   (ite (bvsle #x0000000000000000 var131764)
                        var131764
                        (bvadd ARGNAME_y_NAMEEND_DIM var131764))))
(model-add var131768
           ()
           (_ BitVec 64)
           (select ARGNAME_y_NAMEEND_DIMSIZE
                   (ite (bvsle #x0000000000000000 var131764)
                        var131764
                        (bvadd ARGNAME_y_NAMEEND_DIM var131764))))
(model-add temp2103_22 () (_ BitVec 64) #x0000000000000000)
(model-add temp2103_23 () (_ BitVec 64) #x0000000000000000)
(model-add var131771 () (_ BitVec 64) #x0000000000000000)
(model-del k!0)
(model-add ARGNAME_y_NAMEEND_DIMSIZE
           ()
           (Array (_ BitVec 64) (_ BitVec 64))
           ((as const (Array (_ BitVec 64) (_ BitVec 64))) k!0))
(model-del k!1)
(model-add k!0
           ()
           (_ BitVec 64)
           (ite k!1 #x0000000000000000 (bvnot #x0000000000000000)))




